<number of tasks>
45

<cycle time>
56

<task times>
1 9
2 9
3 10
4 10
5 17
6 17
7 13
8 13
9 20
10 20
11 10
12 11
13 6
14 22
15 11
16 19
17 12
18 3
19 7
20 4
21 55
22 14
23 27
24 29
25 26
26 6
27 5
28 24
29 4
30 5
31 7
32 4
33 15
34 3
35 7
36 9
37 4
38 7
39 5
40 4
41 21
42 12
43 6
44 5
45 5

<precedence relations>
1,3
1,7
2,4
2,8
3,5
4,6
5,9
6,10
7,9
7,14
8,10
8,14
9,41
10,41
11,13
12,13
12,37
13,14
13,15
14,17
14,25
14,29
14,30
14,31
14,32
15,16
15,18
15,23
15,24
16,19
17,26
17,27
18,19
19,20
19,33
20,21
21,22
22,28
23,33
24,33
25,26
26,38
27,28
27,33
28,38
29,41
30,41
31,41
32,41
33,34
33,35
33,36
34,38
35,40
36,38
37,43
38,40
39,41
40,41
41,42
42,44
42,45

<setup times forward>
1,3:2
1,4:3
1,6:1
1,7:4
1,8:4
1,10:5
1,16:4
1,18:4
1,19:4
1,20:2
1,21:1
1,22:3
1,23:1
1,24:1
1,37:1
1,39:5
1,43:2
2,3:2
2,4:3
2,5:3
2,7:4
2,8:4
2,9:2
2,16:4
2,18:4
2,19:4
2,20:2
2,21:1
2,22:3
2,23:1
2,24:1
2,37:1
2,39:5
2,43:2
3,2:2
3,4:1
3,5:1
3,6:1
3,7:6
3,8:6
3,10:3
3,11:2
3,12:2
3,13:2
3,15:2
3,16:6
3,18:6
3,19:6
3,21:3
3,22:1
3,23:3
3,24:3
3,25:1
3,26:4
3,28:3
3,29:4
3,30:4
3,31:4
3,32:4
3,33:1
3,34:4
3,35:3
3,36:1
3,37:1
3,39:3
3,43:4
4,1:3
4,3:1
4,6:2
4,7:7
4,8:7
4,9:5
4,11:3
4,12:3
4,13:3
4,14:1
4,15:3
4,16:7
4,17:1
4,18:7
4,19:7
4,20:1
4,21:4
4,23:4
4,24:4
4,25:2
4,26:5
4,27:1
4,28:2
4,29:5
4,30:5
4,31:5
4,32:5
4,34:5
4,35:2
4,36:2
4,37:2
4,38:1
4,39:2
4,40:1
4,43:5
5,2:3
5,6:2
5,7:7
5,8:7
5,9:5
5,10:2
5,11:3
5,12:3
5,13:3
5,14:1
5,15:3
5,16:7
5,17:1
5,18:7
5,19:7
5,20:1
5,21:4
5,23:4
5,24:4
5,25:2
5,26:5
5,27:1
5,28:2
5,29:5
5,30:5
5,31:5
5,32:5
5,34:5
5,35:2
5,36:2
5,37:2
5,38:1
5,39:2
5,40:1
5,43:5
6,1:1
6,3:1
6,5:2
6,7:5
6,8:5
6,9:3
6,10:4
6,11:1
6,12:1
6,13:1
6,14:1
6,15:1
6,16:5
6,17:1
6,18:5
6,19:5
6,20:1
6,21:2
6,22:2
6,23:2
6,24:2
6,26:3
6,27:1
6,28:4
6,29:3
6,30:3
6,31:3
6,32:3
6,33:2
6,34:3
6,35:4
6,38:1
6,39:4
6,40:1
6,43:3
7,2:4
7,3:6
7,4:7
7,5:7
7,6:5
7,9:2
7,10:9
7,11:4
7,12:4
7,13:4
7,14:6
7,15:4
7,20:6
7,21:3
7,22:7
7,23:3
7,24:3
7,37:5
7,39:9
7,43:2
8,1:4
8,3:6
8,4:7
8,5:7
8,6:5
8,9:2
8,10:9
8,11:4
8,12:4
8,13:4
8,14:6
8,15:4
8,20:6
8,21:3
8,22:7
8,23:3
8,24:3
8,37:5
8,39:9
8,43:2
9,2:2
9,4:5
9,6:3
9,8:2
9,10:7
9,11:2
9,12:2
9,13:2
9,14:4
9,15:2
9,16:2
9,17:4
9,18:2
9,19:2
9,20:4
9,21:1
9,22:5
9,23:1
9,24:1
9,25:3
9,27:4
9,28:7
9,33:5
9,35:7
9,36:3
9,37:3
9,38:4
9,39:7
9,40:4
9,41:4
10,1:5
10,3:3
10,5:2
10,7:9
10,9:7
10,11:5
10,12:5
10,13:5
10,14:3
10,15:5
10,16:9
10,17:3
10,18:9
10,19:9
10,20:3
10,21:6
10,22:2
10,23:6
10,24:6
10,25:4
10,26:7
10,27:3
10,29:7
10,30:7
10,31:7
10,32:7
10,33:2
10,34:7
10,36:4
10,37:4
10,38:3
10,40:3
10,41:3
10,43:7
11,3:2
11,4:3
11,5:3
11,6:1
11,7:4
11,8:4
11,9:2
11,10:5
11,37:1
11,39:5
11,43:2
12,3:2
12,4:3
12,5:3
12,6:1
12,7:4
12,8:4
12,9:2
12,10:5
12,37:1
12,39:5
13,3:2
13,4:3
13,5:3
13,6:1
13,7:4
13,8:4
13,9:2
13,10:5
13,14:2
13,37:1
13,39:5
13,43:2
14,4:1
14,5:1
14,6:1
14,9:4
14,10:3
14,15:2
14,16:6
14,18:6
14,19:6
14,21:3
14,22:1
14,23:3
14,24:3
14,25:1
14,29:4
14,30:4
14,31:4
14,32:4
14,37:1
14,39:3
14,43:4
15,3:2
15,4:3
15,5:3
15,6:1
15,7:4
15,8:4
15,9:2
15,10:5
15,14:2
15,16:4
15,17:2
15,18:4
15,23:1
15,24:1
15,25:1
15,26:2
15,27:2
15,29:2
15,30:2
15,31:2
15,32:2
15,37:1
15,39:5
15,43:2
16,1:4
16,2:4
16,3:6
16,4:7
16,5:7
16,6:5
16,9:2
16,10:9
16,14:6
16,17:6
16,23:3
16,24:3
16,25:5
16,26:2
16,27:6
16,29:2
16,30:2
16,31:2
16,32:2
16,37:5
16,39:9
16,43:2
17,4:1
17,5:1
17,6:1
17,9:4
17,10:3
17,15:2
17,16:6
17,18:6
17,19:6
17,21:3
17,22:1
17,23:3
17,24:3
17,25:1
17,26:4
17,29:4
17,30:4
17,31:4
17,32:4
17,37:1
17,39:3
17,43:4
18,1:4
18,2:4
18,3:6
18,4:7
18,5:7
18,6:5
18,9:2
18,10:9
18,14:6
18,17:6
18,23:3
18,24:3
18,25:5
18,26:2
18,27:6
18,29:2
18,30:2
18,31:2
18,32:2
18,37:5
18,39:9
18,43:2
19,1:4
19,2:4
19,3:6
19,4:7
19,5:7
19,6:5
19,9:2
19,10:9
19,14:6
19,17:6
19,20:6
19,23:3
19,24:3
19,25:5
19,26:2
19,27:6
19,29:2
19,30:2
19,31:2
19,32:2
19,33:7
19,37:5
19,39:9
19,43:2
20,1:2
20,2:2
20,4:1
20,5:1
20,6:1
20,7:6
20,8:6
20,9:4
20,10:3
20,21:3
20,23:3
20,24:3
20,25:1
20,26:4
20,29:4
20,30:4
20,31:4
20,32:4
20,33:1
20,34:4
20,35:3
20,36:1
20,37:1
20,39:3
20,43:4
21,1:1
21,2:1
21,3:3
21,4:4
21,5:4
21,6:2
21,7:3
21,8:3
21,9:1
21,10:6
21,14:3
21,17:3
21,22:4
21,25:2
21,26:1
21,27:3
21,29:1
21,30:1
21,31:1
21,32:1
21,33:4
21,34:1
21,35:6
21,36:2
21,37:2
21,39:6
21,43:1
22,1:3
22,2:3
22,3:1
22,6:2
22,7:7
22,8:7
22,9:5
22,10:2
22,14:1
22,17:1
22,23:4
22,24:4
22,25:2
22,26:5
22,27:1
22,28:2
22,29:5
22,30:5
22,31:5
22,32:5
22,34:5
22,35:2
22,36:2
22,37:2
22,39:2
22,43:5
23,1:1
23,2:1
23,3:3
23,4:4
23,5:4
23,6:2
23,7:3
23,8:3
23,9:1
23,10:6
23,14:3
23,16:3
23,17:3
23,18:3
23,19:3
23,20:3
23,22:4
23,25:2
23,26:1
23,27:3
23,28:6
23,29:1
23,30:1
23,31:1
23,32:1
23,33:4
23,37:2
23,39:6
23,43:1
24,1:1
24,2:1
24,3:3
24,4:4
24,5:4
24,6:2
24,7:3
24,8:3
24,9:1
24,10:6
24,14:3
24,16:3
24,17:3
24,18:3
24,19:3
24,20:3
24,22:4
24,25:2
24,26:1
24,27:3
24,28:6
24,29:1
24,30:1
24,31:1
24,32:1
24,33:4
24,37:2
24,39:6
24,43:1
25,3:1
25,4:2
25,5:2
25,9:3
25,10:4
25,15:1
25,16:5
25,17:1
25,18:5
25,19:5
25,20:1
25,21:2
25,22:2
25,23:2
25,24:2
25,26:3
25,27:1
25,28:4
25,29:3
25,30:3
25,31:3
25,32:3
25,33:2
25,34:3
25,35:4
25,39:4
25,43:3
26,3:4
26,4:5
26,5:5
26,6:3
26,10:7
26,15:2
26,16:2
26,18:2
26,19:2
26,20:4
26,21:1
26,22:5
26,23:1
26,24:1
26,27:4
26,28:7
26,33:5
26,35:7
26,36:3
26,37:3
26,38:4
26,39:7
27,4:1
27,5:1
27,6:1
27,9:4
27,10:3
27,15:2
27,16:6
27,18:6
27,19:6
27,21:3
27,22:1
27,23:3
27,24:3
27,25:1
27,26:4
27,28:3
27,29:4
27,30:4
27,31:4
27,32:4
27,33:1
27,37:1
27,39:3
27,43:4
28,3:3
28,4:2
28,5:2
28,6:4
28,9:7
28,23:6
28,24:6
28,25:4
28,26:7
28,29:7
28,30:7
28,31:7
28,32:7
28,33:2
28,34:7
28,36:4
28,37:4
28,38:3
28,43:7
29,3:4
29,4:5
29,5:5
29,6:3
29,10:7
29,15:2
29,16:2
29,17:4
29,18:2
29,19:2
29,20:4
29,21:1
29,22:5
29,23:1
29,24:1
29,25:3
29,27:4
29,28:7
29,33:5
29,35:7
29,36:3
29,37:3
29,38:4
29,39:7
29,40:4
29,41:4
30,3:4
30,4:5
30,5:5
30,6:3
30,10:7
30,15:2
30,16:2
30,17:4
30,18:2
30,19:2
30,20:4
30,21:1
30,22:5
30,23:1
30,24:1
30,25:3
30,27:4
30,28:7
30,33:5
30,35:7
30,36:3
30,37:3
30,38:4
30,39:7
30,40:4
30,41:4
31,3:4
31,4:5
31,5:5
31,6:3
31,10:7
31,15:2
31,16:2
31,17:4
31,18:2
31,19:2
31,20:4
31,21:1
31,22:5
31,23:1
31,24:1
31,25:3
31,27:4
31,28:7
31,33:5
31,35:7
31,36:3
31,37:3
31,38:4
31,39:7
31,40:4
31,41:4
32,3:4
32,4:5
32,5:5
32,6:3
32,10:7
32,15:2
32,16:2
32,17:4
32,18:2
32,19:2
32,20:4
32,21:1
32,22:5
32,23:1
32,24:1
32,25:3
32,27:4
32,28:7
32,33:5
32,35:7
32,36:3
32,37:3
32,38:4
32,39:7
32,40:4
32,41:4
33,3:1
33,6:2
33,9:5
33,10:2
33,20:1
33,21:4
33,25:2
33,26:5
33,28:2
33,29:5
33,30:5
33,31:5
33,32:5
33,34:5
33,35:2
33,36:2
33,37:2
33,39:2
33,43:5
34,3:4
34,4:5
34,5:5
34,6:3
34,10:7
34,20:4
34,21:1
34,22:5
34,25:3
34,28:7
34,35:7
34,36:3
34,37:3
34,38:4
34,39:7
35,3:3
35,4:2
35,5:2
35,6:4
35,9:7
35,20:3
35,21:6
35,22:2
35,25:4
35,26:7
35,29:7
35,30:7
35,31:7
35,32:7
35,34:7
35,36:4
35,37:4
35,38:3
35,40:3
35,43:7
36,3:1
36,4:2
36,5:2
36,9:3
36,10:4
36,20:1
36,21:2
36,22:2
36,26:3
36,28:4
36,29:3
36,30:3
36,31:3
36,32:3
36,34:3
36,35:4
36,38:1
36,39:4
36,43:3
37,1:1
37,2:1
37,3:1
37,4:2
37,5:2
37,7:5
37,8:5
37,9:3
37,10:4
37,11:1
37,13:1
37,14:1
37,15:1
37,16:5
37,17:1
37,18:5
37,19:5
37,20:1
37,21:2
37,22:2
37,23:2
37,24:2
37,26:3
37,27:1
37,28:4
37,29:3
37,30:3
37,31:3
37,32:3
37,33:2
37,34:3
37,35:4
37,38:1
37,39:4
37,40:1
37,41:1
37,42:1
37,43:3
37,44:1
37,45:1
38,4:1
38,5:1
38,6:1
38,9:4
38,10:3
38,29:4
38,30:4
38,31:4
38,32:4
38,35:3
38,37:1
38,39:3
38,43:4
39,1:5
39,2:5
39,3:3
39,4:2
39,5:2
39,6:4
39,7:9
39,8:9
39,9:7
39,11:5
39,12:5
39,13:5
39,14:3
39,15:5
39,16:9
39,17:3
39,18:9
39,19:9
39,20:3
39,21:6
39,22:2
39,23:6
39,24:6
39,25:4
39,26:7
39,27:3
39,29:7
39,30:7
39,31:7
39,32:7
39,33:2
39,34:7
39,36:4
39,37:4
39,38:3
39,40:3
39,41:3
39,43:7
40,4:1
40,5:1
40,6:1
40,9:4
40,10:3
40,29:4
40,30:4
40,31:4
40,32:4
40,37:1
40,39:3
40,43:4
41,37:1
41,43:4
42,37:1
42,43:4
43,1:2
43,2:2
43,3:4
43,4:5
43,5:5
43,6:3
43,7:2
43,8:2
43,10:7
43,11:2
43,13:2
43,14:4
43,15:2
43,16:2
43,17:4
43,18:2
43,19:2
43,20:4
43,21:1
43,22:5
43,23:1
43,24:1
43,25:3
43,27:4
43,28:7
43,33:5
43,35:7
43,36:3
43,38:4
43,39:7
43,40:4
43,41:4
43,42:4
43,44:4
43,45:4
44,37:1
44,43:4
45,37:1
45,43:4

<setup times backward>
1,4:3
1,6:1
1,10:5
1,20:2
1,22:3
1,37:1
1,39:5
2,3:2
2,5:3
2,20:2
2,22:3
2,37:1
2,39:5
3,4:1
3,10:3
3,22:1
3,28:3
3,33:1
3,35:3
3,39:3
4,28:2
4,35:2
4,39:2
5,10:2
5,28:2
5,35:2
5,39:2
6,3:1
6,4:2
6,5:2
6,14:1
6,17:1
6,20:1
6,22:2
6,27:1
6,28:4
6,33:2
6,35:4
6,38:1
6,39:4
6,40:1
7,1:4
7,2:4
7,3:6
7,4:7
7,5:7
7,6:5
7,10:9
7,11:4
7,12:4
7,13:4
7,15:4
7,20:6
7,21:3
7,22:7
7,23:3
7,24:3
7,37:5
7,39:9
7,43:2
8,1:4
8,2:4
8,3:6
8,4:7
8,5:7
8,6:5
8,9:2
8,11:4
8,12:4
8,13:4
8,15:4
8,20:6
8,21:3
8,22:7
8,23:3
8,24:3
8,37:5
8,39:9
8,43:2
9,1:2
9,2:2
9,3:4
9,4:5
9,5:5
9,6:3
9,10:7
9,11:2
9,12:2
9,13:2
9,14:4
9,15:2
9,17:4
9,20:4
9,21:1
9,22:5
9,23:1
9,24:1
9,25:3
9,27:4
9,28:7
9,33:5
9,35:7
9,36:3
9,37:3
9,38:4
9,39:7
9,40:4
11,3:2
11,4:3
11,5:3
11,6:1
11,10:5
11,37:1
11,39:5
12,3:2
12,4:3
12,5:3
12,6:1
12,10:5
12,39:5
13,3:2
13,4:3
13,5:3
13,6:1
13,10:5
13,37:1
13,39:5
14,4:1
14,5:1
14,10:3
14,22:1
14,39:3
15,3:2
15,4:3
15,5:3
15,6:1
15,10:5
15,14:2
15,17:2
15,25:1
15,27:2
15,37:1
15,39:5
16,1:4
16,2:4
16,3:6
16,4:7
16,5:7
16,6:5
16,9:2
16,10:9
16,11:4
16,12:4
16,13:4
16,14:6
16,15:4
16,17:6
16,23:3
16,24:3
16,25:5
16,26:2
16,27:6
16,29:2
16,30:2
16,31:2
16,32:2
16,37:5
16,39:9
16,43:2
17,4:1
17,5:1
17,10:3
17,22:1
17,39:3
18,1:4
18,2:4
18,3:6
18,4:7
18,5:7
18,6:5
18,9:2
18,10:9
18,11:4
18,12:4
18,13:4
18,14:6
18,15:4
18,17:6
18,23:3
18,24:3
18,25:5
18,26:2
18,27:6
18,29:2
18,30:2
18,31:2
18,32:2
18,37:5
18,39:9
18,43:2
19,1:4
19,2:4
19,3:6
19,4:7
19,5:7
19,6:5
19,9:2
19,10:9
19,11:4
19,12:4
19,13:4
19,14:6
19,15:4
19,17:6
19,23:3
19,24:3
19,25:5
19,26:2
19,27:6
19,29:2
19,30:2
19,31:2
19,32:2
19,37:5
19,39:9
19,43:2
20,4:1
20,5:1
20,10:3
20,33:1
20,35:3
20,39:3
21,1:1
21,2:1
21,3:3
21,4:4
21,5:4
21,6:2
21,10:6
21,11:1
21,12:1
21,13:1
21,14:3
21,15:1
21,17:3
21,20:3
21,25:2
21,27:3
21,33:4
21,35:6
21,36:2
21,37:2
21,39:6
22,10:2
22,35:2
22,39:2
23,1:1
23,2:1
23,3:3
23,4:4
23,5:4
23,6:2
23,10:6
23,11:1
23,12:1
23,13:1
23,14:3
23,15:1
23,17:3
23,20:3
23,22:4
23,25:2
23,27:3
23,28:6
23,37:2
23,39:6
24,1:1
24,2:1
24,3:3
24,4:4
24,5:4
24,6:2
24,10:6
24,11:1
24,12:1
24,13:1
24,14:3
24,15:1
24,17:3
24,20:3
24,22:4
24,25:2
24,27:3
24,28:6
24,37:2
24,39:6
25,3:1
25,4:2
25,5:2
25,10:4
25,14:1
25,17:1
25,20:1
25,22:2
25,27:1
25,28:4
25,33:2
25,35:4
25,39:4
26,1:2
26,2:2
26,3:4
26,4:5
26,5:5
26,6:3
26,10:7
26,11:2
26,12:2
26,13:2
26,14:4
26,15:2
26,17:4
26,20:4
26,21:1
26,22:5
26,23:1
26,24:1
26,25:3
26,27:4
26,28:7
26,33:5
26,35:7
26,36:3
26,37:3
26,39:7
27,4:1
27,5:1
27,10:3
27,22:1
27,39:3
29,1:2
29,2:2
29,3:4
29,4:5
29,5:5
29,6:3
29,10:7
29,11:2
29,12:2
29,13:2
29,14:4
29,15:2
29,17:4
29,20:4
29,21:1
29,22:5
29,23:1
29,24:1
29,25:3
29,27:4
29,28:7
29,33:5
29,35:7
29,36:3
29,37:3
29,38:4
29,39:7
29,40:4
30,1:2
30,2:2
30,3:4
30,4:5
30,5:5
30,6:3
30,10:7
30,11:2
30,12:2
30,13:2
30,14:4
30,15:2
30,17:4
30,20:4
30,21:1
30,22:5
30,23:1
30,24:1
30,25:3
30,27:4
30,28:7
30,33:5
30,35:7
30,36:3
30,37:3
30,38:4
30,39:7
30,40:4
31,1:2
31,2:2
31,3:4
31,4:5
31,5:5
31,6:3
31,10:7
31,11:2
31,12:2
31,13:2
31,14:4
31,15:2
31,17:4
31,20:4
31,21:1
31,22:5
31,23:1
31,24:1
31,25:3
31,27:4
31,28:7
31,33:5
31,35:7
31,36:3
31,37:3
31,38:4
31,39:7
31,40:4
32,1:2
32,2:2
32,3:4
32,4:5
32,5:5
32,6:3
32,10:7
32,11:2
32,12:2
32,13:2
32,14:4
32,15:2
32,17:4
32,20:4
32,21:1
32,22:5
32,23:1
32,24:1
32,25:3
32,27:4
32,28:7
32,33:5
32,35:7
32,36:3
32,37:3
32,38:4
32,39:7
32,40:4
33,10:2
33,28:2
33,39:2
34,1:2
34,2:2
34,3:4
34,4:5
34,5:5
34,6:3
34,10:7
34,11:2
34,12:2
34,13:2
34,14:4
34,15:2
34,17:4
34,20:4
34,21:1
34,22:5
34,23:1
34,24:1
34,25:3
34,27:4
34,28:7
34,33:5
34,35:7
34,36:3
34,37:3
34,39:7
36,3:1
36,4:2
36,5:2
36,10:4
36,14:1
36,17:1
36,20:1
36,22:2
36,27:1
36,28:4
36,33:2
36,35:4
36,39:4
37,3:1
37,4:2
37,5:2
37,10:4
37,14:1
37,17:1
37,20:1
37,22:2
37,27:1
37,28:4
37,33:2
37,35:4
37,38:1
37,39:4
37,40:1
37,41:1
37,42:1
37,44:1
37,45:1
38,4:1
38,5:1
38,10:3
38,22:1
38,28:3
38,33:1
38,35:3
38,39:3
40,4:1
40,5:1
40,10:3
40,22:1
40,28:3
40,33:1
40,35:3
40,39:3
41,4:1
41,5:1
41,10:3
41,22:1
41,28:3
41,33:1
41,35:3
41,39:3
42,4:1
42,5:1
42,10:3
42,22:1
42,28:3
42,33:1
42,35:3
42,39:3
43,1:2
43,2:2
43,3:4
43,4:5
43,5:5
43,6:3
43,10:7
43,11:2
43,12:2
43,13:2
43,14:4
43,15:2
43,17:4
43,20:4
43,21:1
43,22:5
43,23:1
43,24:1
43,25:3
43,27:4
43,28:7
43,33:5
43,35:7
43,36:3
43,37:3
43,38:4
43,39:7
43,40:4
43,41:4
43,42:4
43,44:4
43,45:4
44,4:1
44,5:1
44,10:3
44,22:1
44,28:3
44,33:1
44,35:3
44,39:3
45,4:1
45,5:1
45,10:3
45,22:1
45,28:3
45,33:1
45,35:3
45,39:3

<end>

<optimal SALBP-1 value>
10


<rand seed>
467321153

